3576.69
0 3 9 7 8 13 5 1 66 2 4 6 0
0 11 14 19 15 22 105 16 18 10 12 17 0
0 25 24 145 116 23 190 28 21 30 20 29 27 26 0
0 37 36 59 34 35 38 31 39 32 49 41 33 0
0 48 47 154 45 46 52 50 40 44 42 43 53 0
0 55 56 57 51 58 64 62 61 54 60 0
0 67 68 74 63 73 72 75 71 69 123 70 78 65 0
0 84 85 83 79 88 82 89 92 80 77 76 81 87 86 0
0 97 106 135 90 91 93 101 94 103 98 99 102 100 95 96 0
0 114 113 115 104 159 117 107 118 110 109 108 111 112 0
0 129 119 134 132 128 124 122 121 120 125 127 126 130 191 0
0 155 138 140 143 137 142 141 136 144 146 131 133 149 139 0
0 162 148 147 160 158 156 153 150 168 151 152 157 0
0 171 166 173 172 161 163 165 164 170 177 167 169 0
0 180 178 175 176 179 174 184 183 182 181 187 188 0
0 198 192 199 185 197 186 196 195 194 193 189 0
0 0
